151,164 164,167 167,166 166,157 157,152 152,149 149,143 143,153 153,156 156,140 140,146 146,150 150,154 154,147 147,142 142,134 134,130 130,135 135,128 128,132 132,127 127,122 122,123 123,119 119,120 120,116 116,115 115,114 114,111 111,109 109,107 107,106 106,104 104,91 91,94 94,95 95,92 92,87 87,82 82,73 73,68 68,59 59,56 56,44 44,28 28,21 21,27 27,32 32,17 17,20 20,23 23,25 25,16 16,24 24,22 22,12 12,13 13,10 10,6 6,3 3,1 1,2 2,4 4,8 8,9 9,11 11,14 14,18 18,29 29,31 31,34 34,41 41,52 52,51 51,47 47,45 45,40 40,37 37,39 39,42 42,55 55,57 57,46 46,50 50,38 38,33 33,30 30,43 43,48 48,54 54,53 53,49 49,60 60,66 66,65 65,72 72,67 67,63 63,69 69,76 76,78 78,80 80,83 83,96 96,105 105,102 102,117 117,121 121,118 118,112 112,108 108,113 113,125 125,124 124,126 126,131 131,133 133,141 141,145 145,148 148,144 144,139 139,136 136,137 137,138 138,163 163,162 162,160 160,168 168,171 171,178 178,173 173,172 172,176 176,180 180,183 183,187 187,190 190,188 188,191 191,189 189,186 186,185 185,182 182,174 174,177 177,179 179,169 169,170 170,165 165,161 161,158 158,159 159,184 184,192 192,193 193,181 181,175 175,155 155,129 129,110 110,103 103,100 100,98 98,93 93,89 89,88 88,81 81,79 79,86 86,75 75,74 74,77 77,71 71,70 70,61 61,58 58,35 35,62 62,85 85,84 84,97 97,64 64,19 19,15 15,7 7,5 5,0 0,26 26,36 36,99 99,90 90,101 101,151 
same
same
same
same
same
157,158 158,161 161,166 166,169 169,170 170,165 165,159 159,147 147,142 142,134 134,130 130,135 135,146 146,151 151,152 152,149 149,143 143,156 156,153 153,138 138,137 137,141 141,145 145,148 148,144 144,139 139,136 136,133 133,131 131,126 126,124 124,125 125,113 113,112 112,108 108,101 101,102 102,90 90,92 92,95 95,94 94,80 80,76 76,78 78,82 82,87 87,91 91,96 96,104 104,99 99,109 109,111 111,114 114,115 115,116 116,120 120,119 119,127 127,122 122,123 123,132 132,128 128,117 117,105 105,106 106,107 107,83 83,69 69,63 63,56 56,44 44,28 28,21 21,27 27,50 50,46 46,38 38,33 33,39 39,42 42,37 37,40 40,45 45,47 47,51 51,52 52,53 53,55 55,57 57,60 60,66 66,65 65,72 72,67 67,36 36,26 26,30 30,31 31,29 29,34 34,41 41,48 48,54 54,49 49,43 43,18 18,14 14,11 11,9 9,8 8,4 4,2 2,1 1,3 3,6 6,10 10,13 13,16 16,25 25,23 23,20 20,17 17,32 32,59 59,68 68,73 73,77 77,74 74,71 71,75 75,79 79,86 86,70 70,24 24,22 22,12 12,15 15,7 7,5 5,35 35,58 58,61 61,81 81,88 88,89 89,93 93,98 98,100 100,103 103,110 110,97 97,64 64,84 84,85 85,62 62,19 19,0 0,118 118,121 121,140 140,150 150,154 154,164 164,167 167,177 177,179 179,184 184,192 192,187 187,190 190,188 188,191 191,189 189,186 186,185 185,182 182,174 174,172 172,173 173,178 178,171 171,168 168,175 175,181 181,193 193,183 183,180 180,176 176,162 162,160 160,163 163,155 155,129 129,157 
same
same
same
same
same
97,85 85,84 84,88 88,89 89,93 93,98 98,100 100,103 103,110 110,113 113,112 112,108 108,101 101,102 102,90 90,92 92,95 95,94 94,96 96,91 91,87 87,82 82,80 80,78 78,76 76,69 69,63 63,56 56,44 44,59 59,32 32,27 27,28 28,21 21,26 26,36 36,38 38,46 46,52 52,51 51,47 47,45 45,40 40,37 37,39 39,42 42,55 55,54 54,48 48,41 41,43 43,53 53,57 57,50 50,60 60,66 66,65 65,72 72,67 67,33 33,30 30,31 31,29 29,34 34,49 49,18 18,14 14,11 11,9 9,8 8,4 4,2 2,1 1,3 3,6 6,10 10,13 13,16 16,25 25,23 23,20 20,17 17,68 68,73 73,77 77,74 74,71 71,75 75,79 79,86 86,70 70,22 22,24 24,12 12,15 15,5 5,7 7,35 35,58 58,61 61,81 81,62 62,64 64,19 19,0 0,83 83,99 99,109 109,111 111,114 114,115 115,116 116,120 120,119 119,127 127,132 132,134 134,128 128,130 130,135 135,147 147,142 142,154 154,150 150,146 146,151 151,152 152,149 149,143 143,153 153,156 156,140 140,138 138,137 137,141 141,148 148,145 145,139 139,136 136,133 133,131 131,126 126,124 124,125 125,118 118,121 121,117 117,105 105,104 104,106 106,107 107,122 122,123 123,159 159,165 165,170 170,169 169,166 166,167 167,164 164,158 158,157 157,161 161,177 177,179 179,184 184,192 192,191 191,190 190,188 188,187 187,183 183,180 180,176 176,174 174,172 172,173 173,178 178,171 171,168 168,175 175,181 181,185 185,182 182,186 186,189 189,193 193,163 163,160 160,162 162,155 155,144 144,129 129,97 
same
same
same
same
same
same
same
same
same
same
same
same
same
same
same
same
same
same
same
same
same
same
same
same
same
same
same
same
same
same
same
same
same
same
same
same
same
same
same
same
same
same
same
same
same
same
same
same
same
97,85 85,84 84,64 64,19 19,62 62,35 35,58 58,61 61,81 81,79 79,86 86,75 75,74 74,77 77,71 71,73 73,68 68,59 59,56 56,44 44,28 28,21 21,27 27,46 46,50 50,38 38,33 33,39 39,42 42,40 40,37 37,45 45,47 47,51 51,52 52,53 53,54 54,48 48,41 41,43 43,34 34,31 31,49 49,55 55,57 57,60 60,66 66,65 65,72 72,67 67,63 63,69 69,76 76,78 78,80 80,82 82,87 87,91 91,96 96,94 94,95 95,92 92,90 90,102 102,101 101,108 108,112 112,113 113,118 118,121 121,117 117,105 105,104 104,106 106,107 107,109 109,111 111,114 114,115 115,116 116,120 120,119 119,127 127,122 122,123 123,132 132,134 134,128 128,130 130,135 135,147 147,142 142,154 154,150 150,146 146,151 151,152 152,153 153,149 149,143 143,140 140,156 156,138 138,137 137,141 141,145 145,148 148,144 144,139 139,136 136,133 133,131 131,126 126,124 124,125 125,129 129,155 155,160 160,162 162,163 163,168 168,178 178,171 171,173 173,172 172,174 174,183 183,177 177,179 179,169 169,166 166,167 167,164 164,158 158,157 157,161 161,165 165,170 170,184 184,192 192,187 187,190 190,188 188,191 191,189 189,186 186,185 185,182 182,181 181,175 175,193 193,180 180,176 176,159 159,99 99,83 83,36 36,26 26,30 30,29 29,18 18,14 14,11 11,9 9,8 8,4 4,2 2,1 1,3 3,6 6,10 10,13 13,16 16,25 25,23 23,20 20,17 17,32 32,24 24,22 22,12 12,15 15,7 7,5 5,0 0,70 70,100 100,98 98,93 93,89 89,88 88,103 103,110 110,97 
same
same
same
same
same
same
same
same
same
same
same
same
same
same
same
same
same
same
same
same
same
same
same
same
same
same
same
same
same
same
same
same
same
same
same
same
same
same
same
same
same
same
same
same
same
same
same
same
same
same
same
same
same
same
same
same
same
same
same
same
same
same
same
same
same
same
same
same
same
same
same
same
same
same
same
same
same
same
same
same
same
same
same
same
same
same
same
same
same
same
same
same
same
same
same
same
same
same
same
same
161,157 157,158 158,164 164,167 167,166 166,169 169,170 170,165 165,159 159,147 147,142 142,134 134,128 128,132 132,127 127,123 123,122 122,119 119,120 120,116 116,115 115,114 114,104 104,105 105,106 106,107 107,109 109,111 111,99 99,83 83,80 80,78 78,76 76,69 69,63 63,56 56,44 44,28 28,21 21,27 27,32 32,59 59,20 20,17 17,23 23,25 25,16 16,6 6,10 10,13 13,12 12,22 22,24 24,70 70,75 75,79 79,86 86,101 101,102 102,90 90,92 92,95 95,94 94,96 96,91 91,87 87,82 82,73 73,68 68,77 77,74 74,71 71,67 67,65 65,66 66,60 60,57 57,55 55,52 52,51 51,47 47,45 45,34 34,41 41,48 48,49 49,54 54,53 53,43 43,40 40,37 37,39 39,42 42,38 38,46 46,50 50,33 33,30 30,31 31,29 29,26 26,36 36,72 72,18 18,14 14,11 11,9 9,8 8,4 4,2 2,1 1,3 3,5 5,7 7,15 15,35 35,58 58,61 61,81 81,88 88,89 89,93 93,98 98,100 100,103 103,110 110,97 97,85 85,84 84,64 64,62 62,19 19,0 0,108 108,112 112,113 113,118 118,121 121,117 117,130 130,135 135,150 150,154 154,146 146,151 151,140 140,143 143,149 149,152 152,156 156,153 153,138 138,137 137,141 141,145 145,148 148,144 144,139 139,136 136,133 133,131 131,126 126,124 124,125 125,129 129,155 155,160 160,162 162,163 163,168 168,171 171,178 178,173 173,172 172,174 174,183 183,180 180,176 176,177 177,179 179,184 184,192 192,187 187,190 190,188 188,191 191,189 189,186 186,185 185,182 182,181 181,175 175,193 193,161 
same
same
same
same
same
same
same
same
same
same
same
same
same
same
same
same
same
same
same
same
same
same
same
same
same
same
same
same
same
same
same
same
same
same
same
same
same
same
same
same
same
same
same
same
same
same
same
same
same
same
same
same
same
same
same
same
same
same
same
same
same
same
same
same
same
same
same
same
same
same
same
same
same
same
same
same
same
same
same
same
same
same
same
same
same
same
same
same
same
same
same
same
same
same
same
same
same
same
same
same
same
same
same
same
same
same
same
same
same
same
same
same
same
same
same
same
same
same
same
same
same
same
same
same
same
same
same
same
same
same
same
same
same
same
same
same
same
same
same
same
same
same
same
same
same
same
same
same
same
same
same
same
same
same
same
same
same
same
same
same
same
same
same
same
same
same
same
same
same
same
same
same
same
same
same
same
same
same
same
same
same
same
same
same
same
same
same
same
same
same
same
same
same
same
same
same
same
same
same
same
same
same
same
same
same
same
same
same
same
same
same
same
same
same
same
same
same
same
same
same
same
same
same
same
same
same
same
same
same
same
same
same
same
same
same
same
same
same
same
same
same
same
same
same
same
same
same
same
same
same
same
same
same
same
same
same
same
same
same
same
same
same
same
same
same
same
same
same
same
same
same
same
same
same
same
same
same
same
same
same
same
same
same
same
same
same
same
same
same
same
same
same
same
same
same
same
same
same
same
same
same
same
same
same
same
same
same
same
same
same
same
same
same
same
same
same
same
same
same
same
same
same
same
same
same
same
same
same
same
same
same
same
same
same
same
same
same
same
same
same
same
same
same
same
same
same
same
same
same
same
same
same
same
same
same
same
same
same
same
same
same
same
same
same
same
same
same
same
same
same
same
same
same
same
same
same
same
same
same
same
same
same
same
same
same
same
same
same
same
same
same
same
same
same
same
same
same
same
same
same
same
same
same
same
same
same
same
same
same
same
same
same
same
same
same
same
same
same
same
same
same
same
same
same
same
same
same
same
same
same
same
same
same
same
same
same
same
same
same
same
same
same
same
same
same
same
same
same
same
same
same
same
same
same
same
same
same
same
same
same
same
same
same
same
same
same
same
same
same
same
same
same
same
same
same
same
same
same
same
same
same
same
same
same
same
same
same
same
same
same
same
same
same
same
same
same
same
same
same
same
same
same
same
same
same
same
same
same
same
same
same
same
same
same
same
same
same
same
same
same
same
same
same
same
same
same
same
same
same
same
same
same
same
same
same
same
same
same
same
same
same
same
same
same
same
same
same
same
same
same
same
same
same
same
same
same
same
same
same
same
same
same
same
same
same
same
same
same
same
same
same
same
same
same
same
same
same
same
same
same
same
same
same
same
same
same
same
same
same
same
same
same
same
same
same
same
same
same
same
same
same
same
same
same
same
same
same
same
same
same
same
same
same
same
same
same
same
same
same
same
same
same
same
same
same
same
same
same
same
same
same
same
same
same
same
same
same
same
same
same
same
same
same
same
same
same
same
same
same
same
same
same
same
same
same
same
same
same
same
same
same
same
same
same
same
same
same
same
same
same
same
same
same
same
same
same
same
same
same
same
same
same
same
same
same
same
same
same
same
same
same
same
same
same
same
same
same
same
same
same
same
same
same
same
same
same
same
same
same
same
same
same
same
same
same
same
same
same
same
same
same
same
same
same
same
same
same
same
same
same
same
same
same
same
same
same
same
same
same
same
same
same
same
same
same
same
same
same
same
same
same
same
same
same
same
same
same
same
same
same
same
same
same
same
same
same
same
same
same
same
same
same
same
same
same
same
same
same
same
same
same
same
same
same
same
same
same
same
same
same
same
same
same
same
same
same
same
same
same
same
same
same
same
same
same
same
same
same
same
same
same
same
same
same
same
same
same
same
same
same
same
same
same
same
same
same
same
same
same
same
same
same
same
same
same
same
same
same
same
same
same
same
same
